decision_x1=[0,4];
decision_x2=[0,4];
decision_x3=[0,4];
decision_x4=[0,4];
decision_x5=[0,4];
decision_x6=[0,4];
decision_x7=[0,4];
decision_x8=[0,4];
random_y1=[0,4];
random_y2=[0,4];
random_y3=[0,4];
random_y4=[0,4];
constraint_x3_x2=[
0,1,4.6|
0,2,2.4|
0,3,5.4|
0,4,4.3|
1,0,3.5|
1,2,3.6|
1,3,6.4|
1,4,7.3|
2,0,8.9|
2,1,4.3|
2,3,0.67|
2,4,5.8|
3,0,0.15|
3,1,3.6|
3,2,0.6|
3,4,4.2|
4,0,0.62|
4,1,1.3|
4,2,7.7|
4,3,3.8|
];
constraint_x4_x2=[
0,1,6.3|
0,2,5|
0,3,0.51|
0,4,8.9|
1,0,2.2|
1,2,9.6|
1,3,5.7|
1,4,3.2|
2,0,7.9|
2,1,8.5|
2,3,0.5|
2,4,5.6|
3,0,0.7|
3,1,9.9|
3,2,7|
3,4,2.2|
4,0,1.9|
4,1,3.8|
4,2,8.1|
4,3,0.15|
];
constraint_x5_x3=[
0,1,6.2|
0,2,0.31|
0,3,0.85|
0,4,2.4|
1,0,5.9|
1,2,8.2|
1,3,8|
1,4,7.2|
2,0,5.7|
2,1,7.4|
2,3,1.5|
2,4,2.9|
3,0,9.3|
3,1,0.48|
3,2,5.4|
3,4,2.5|
4,0,3.1|
4,1,4.6|
4,2,4.9|
4,3,3.8|
];
constraint_x6_x1=[
0,1,3.9|
0,2,9|
0,3,3.5|
0,4,8.3|
1,0,7.7|
1,2,4.2|
1,3,3.7|
1,4,8.4|
2,0,4.3|
2,1,3.3|
2,3,5.2|
2,4,6.1|
3,0,1.5|
3,1,0.99|
3,2,2.4|
3,4,3.8|
4,0,8.3|
4,1,7.5|
4,2,4.3|
4,3,8.9|
];
constraint_x6_x3=[
0,1,9.6|
0,2,5.1|
0,3,6.1|
0,4,5.4|
1,0,2.8|
1,2,9.3|
1,3,4.9|
1,4,0.64|
2,0,7|
2,1,9.5|
2,3,5.5|
2,4,2.9|
3,0,2.4|
3,1,2|
3,2,1.7|
3,4,8.6|
4,0,9.4|
4,1,0.63|
4,2,5.1|
4,3,7.5|
];
constraint_x6_x4=[
0,1,2.8|
0,2,6.8|
0,3,8.9|
0,4,6.4|
1,0,9.9|
1,2,8.2|
1,3,8.1|
1,4,0.4|
2,0,5.4|
2,1,7.8|
2,3,8.1|
2,4,2.1|
3,0,0.46|
3,1,0.35|
3,2,9.7|
3,4,8.8|
4,0,8.4|
4,1,8.2|
4,2,6.3|
4,3,3.5|
];
constraint_x6_x5=[
0,1,2.2|
0,2,9.1|
0,3,6.5|
0,4,2.7|
1,0,9.1|
1,2,4.5|
1,3,7.3|
1,4,2.2|
2,0,4.7|
2,1,4.7|
2,3,1.9|
2,4,0.29|
3,0,4.2|
3,1,9.2|
3,2,4.3|
3,4,1.5|
4,0,8.4|
4,1,7.7|
4,2,0.19|
4,3,8.6|
];
constraint_x7_x1=[
0,1,1.1|
0,2,9.5|
0,3,7.9|
0,4,2.2|
1,0,7|
1,2,1.3|
1,3,6|
1,4,5.6|
2,0,2|
2,1,0.69|
2,3,3.7|
2,4,2.8|
3,0,2.7|
3,1,6.1|
3,2,1.1|
3,4,2.3|
4,0,2.1|
4,1,8|
4,2,9.4|
4,3,4.4|
];
constraint_x7_x2=[
0,1,5|
0,2,9.9|
0,3,6.3|
0,4,3|
1,0,4.4|
1,2,6.6|
1,3,0.23|
1,4,8.9|
2,0,9.9|
2,1,1.1|
2,3,1.7|
2,4,8.5|
3,0,8.3|
3,1,1.3|
3,2,8.6|
3,4,0.4|
4,0,9|
4,1,5.2|
4,2,4.6|
4,3,4.9|
];
constraint_x7_x3=[
0,1,5.5|
0,2,2|
0,3,0.42|
0,4,9|
1,0,9.9|
1,2,8|
1,3,1.8|
1,4,2.5|
2,0,9|
2,1,6.6|
2,3,0.62|
2,4,10|
3,0,8.8|
3,1,1.5|
3,2,6.6|
3,4,8.4|
4,0,8|
4,1,3.1|
4,2,7.3|
4,3,2|
];
constraint_x7_x4=[
0,1,3.5|
0,2,7.4|
0,3,5.6|
0,4,1.3|
1,0,9|
1,2,3.4|
1,3,6.4|
1,4,4.1|
2,0,0.24|
2,1,0.4|
2,3,5.8|
2,4,9.6|
3,0,3.7|
3,1,4.8|
3,2,6.9|
3,4,8.6|
4,0,4.9|
4,1,5.3|
4,2,10|
4,3,5.4|
];
constraint_x7_x6=[
0,1,1.6|
0,2,5.3|
0,3,6.6|
0,4,7.6|
1,0,5.6|
1,2,0.42|
1,3,2.4|
1,4,1.3|
2,0,7.3|
2,1,5.2|
2,3,3.3|
2,4,6.3|
3,0,4.5|
3,1,1|
3,2,1.7|
3,4,2|
4,0,1.5|
4,1,0.3|
4,2,8|
4,3,9|
];
constraint_x8_x5=[
0,1,6.7|
0,2,1|
0,3,2.9|
0,4,1.5|
1,0,1.9|
1,2,1.2|
1,3,4.6|
1,4,3.8|
2,0,7.7|
2,1,6.8|
2,3,2.4|
2,4,5.2|
3,0,6.2|
3,1,3.2|
3,2,4.8|
3,4,6.3|
4,0,7.9|
4,1,7.4|
4,2,6.5|
4,3,5.9|
];
constraint_x8_x6=[
0,1,5.4|
0,2,3|
0,3,8.1|
0,4,4.6|
1,0,2.8|
1,2,0.99|
1,3,7.9|
1,4,7.2|
2,0,4.9|
2,1,6.8|
2,3,5|
2,4,8.7|
3,0,3|
3,1,0.93|
3,2,3.3|
3,4,4.7|
4,0,6.3|
4,1,4.5|
4,2,0.92|
4,3,2.7|
];
constraint_x1_y1=[
0,0,7.3|
0,1,4.1|
0,2,3.3|
0,3,7.1|
0,4,6.2|
1,0,6.3|
1,1,3.5|
1,2,7.9|
1,3,7.4|
1,4,5.5|
2,0,2.2|
2,1,0.16|
2,2,5.8|
2,3,4.3|
2,4,7.9|
3,0,0.53|
3,1,3.2|
3,2,4.6|
3,3,8.1|
3,4,8.9|
4,0,4.3|
4,1,4|
4,2,2.7|
4,3,0.74|
4,4,0.17|
];
constraint_x2_y2=[
0,0,8.4|
0,1,1.6|
0,2,5.4|
0,3,2.1|
0,4,6.3|
1,0,7.6|
1,1,2.3|
1,2,1.6|
1,3,8.6|
1,4,5|
2,0,6.1|
2,1,9.1|
2,2,8.3|
2,3,7|
2,4,6.7|
3,0,6.5|
3,1,3.8|
3,2,2|
3,3,7.2|
3,4,4.8|
4,0,4.1|
4,1,2.3|
4,2,4.9|
4,3,0.41|
4,4,1.6|
];
constraint_x3_y3=[
0,0,2.7|
0,1,5.6|
0,2,3.4|
0,3,3.2|
0,4,8.2|
1,0,8.4|
1,1,9.8|
1,2,3|
1,3,2.7|
1,4,4.5|
2,0,5.3|
2,1,9.2|
2,2,3.8|
2,3,7.8|
2,4,4.6|
3,0,5.4|
3,1,0.25|
3,2,6.9|
3,3,5.6|
3,4,1.9|
4,0,7.1|
4,1,3.8|
4,2,3.9|
4,3,0.97|
4,4,7.8|
];
constraint_x4_y4=[
0,0,0.63|
0,1,1.5|
0,2,9.5|
0,3,9.3|
0,4,3.1|
1,0,7.9|
1,1,6.4|
1,2,3|
1,3,1.4|
1,4,8.7|
2,0,2.2|
2,1,7.5|
2,2,1|
2,3,6.7|
2,4,3.8|
3,0,9.6|
3,1,3|
3,2,3.1|
3,3,5.4|
3,4,0.24|
4,0,5.9|
4,1,1|
4,2,4.5|
4,3,4.4|
4,4,8.1|
];
initial_distribution_y1=[0.13,0.17,0.32,0.19,0.2];
initial_distribution_y2=[0.32,0.17,0.22,0.11,0.17];
initial_distribution_y3=[0.28,0.2,0.43,0.019,0.074];
initial_distribution_y4=[0.29,0.17,0.28,0.13,0.14];
transition_y1=[
0.15,0.19,0.43,0.21,0.0083|
0.21,0.23,0.25,0.085,0.23|
0.21,0.12,0.22,0.23,0.21|
0.37,0.15,0.22,0.073,0.19|
0.31,0.2,0.091,0.24,0.17|
];
transition_y2=[
0.12,0.23,0.12,0.34,0.19|
0.024,0.14,0.14,0.27,0.42|
0.3,0.06,0.12,0.39,0.12|
0.15,0.24,0.2,0.18,0.23|
0.077,0.24,0.24,0.31,0.13|
];
transition_y3=[
0.51,0.13,0.083,0.071,0.2|
0.047,0.31,0.12,0.2,0.32|
0.15,0.18,0.46,0.078,0.12|
0.027,0.25,0.33,0.3,0.096|
0.0085,0.18,0.17,0.53,0.11|
];
transition_y4=[
0.063,0.57,0.2,0.031,0.13|
0.064,0.24,0.29,0.17,0.23|
0.075,0.13,0.33,0.13,0.33|
0.069,0.0085,0.16,0.7,0.066|
0.18,0.11,0.21,0.15,0.36|
];
